92 98 85 44 14 38 86 17 60 89 
88 53 21 72 74 73 2 58 
27 69 30 32 90 63 10 31 
83 45 84 61 16 91 100 37 95 
39 23 67 55 25 54 
40 22 41 75 56 4 26 
96 99 6 
28 76 79 81 9 35 34 3 77 
97 42 43 15 57 87 13 
50 33 78 29 24 68 80 12 
51 71 65 66 20 70 1 
7 47 36 46 8 5 93 59 94 
52 62 11 64 49 19 48 82 18 
